HUN,8,6,678
1,74,2,16,0,90,3,100,4,82,5,64
2,94,4,65,5,14,3,56,0,9,1,97
5,79,4,43,1,56,0,44,3,70,2,1
3,65,0,20,4,38,5,54,1,24,2,96
0,95,5,70,4,35,2,51,3,85,1,3
5,21,4,32,3,13,0,35,2,49,1,23
4,34,0,18,3,48,5,100,1,21,2,73
1,16,2,34,3,7,4,52,5,80,0,71
